(set-logic HORN)
(declare-fun state (Int (Array Int Int) (Array Int Int) (Array Int Int) (Array Int Int) Int Int (Array Int Int) (Array Int Int) Int Int Int Int Int Int Int Int Int Int Int Int Bool Bool Bool Bool Bool Bool (Array Int Int)) Bool)
(assert (forall ((|A_32| Int) (|B_32| (Array Int Int)) (|C_32| (Array Int Int)) (|D_32| (Array Int Int)) (|E_32| (Array Int Int)) (|F_32| Int) (|G_32| Int) (|H_32| (Array Int Int)) (|I_32| (Array Int Int)) (|J_32| Int) (|K_32| Int) (|L_32| Int) (|M_32| Int) (|N_32| Int) (|O_32| Int) (|P_32| Int) (|Q_32| Int) (|R_32| Int) (|S_32| Int) (|T_32| Int) (|U_32| Int) (|W_16| Bool) (|.loc.6| Bool) (|.loc.7| Bool) (|.loc.8| Bool) (|.loc.9| Bool) (|.loc.10| Bool) (|W_0| (Array Int Int)) (|.x.699| Int) (|.x.697| (Array Int Int)) (|.x.695| Int) (|.x.693| (Array Int Int)) (|.x.689| Int) (|.x.691| (Array Int Int)) (|.x.690| (Array Int Int)) (|V_32| Bool) (|.x.700| Int) (|.x.701| Int) (|.x.702| Int) (|.x.704| Int) (|.loc.12| Bool) (|.x.705| Int) (|.x.703| Int) (|.x.708| Int) (|.loc.15| Bool) (|.loc.11| Bool) (|.loc.13| Bool) (|.loc.14| Bool) (|.x.709| Int) (|.x.707| Int) (|.x.706| Int) (|.x.692| (Array Int Int)) (|.x.698| Int) (|.x.694| Int) (|.x.696| (Array Int Int)) (|.xtv.1| (Array Int Int))) (=> (and (and (and (and (and .loc.6 (not .loc.7)) (not .loc.8)) (not .loc.9)) (not .loc.10)) (and (and (and (and (and (= D_32 E_32) (not W_16)) (= F_32 G_32)) (= J_32 K_32)) (= H_32 I_32)) (= B_32 C_32))) (state |A_32| |B_32| |C_32| |D_32| |E_32| |F_32| |G_32| |H_32| |I_32| |J_32| |K_32| |L_32| |M_32| |N_32| |O_32| |P_32| |Q_32| |R_32| |S_32| |T_32| |U_32| |W_16| |.loc.6| |.loc.7| |.loc.8| |.loc.9| |.loc.10| |W_0|))))
(assert (forall ((|A_32| Int) (|B_32| (Array Int Int)) (|C_32| (Array Int Int)) (|D_32| (Array Int Int)) (|E_32| (Array Int Int)) (|F_32| Int) (|G_32| Int) (|H_32| (Array Int Int)) (|I_32| (Array Int Int)) (|J_32| Int) (|K_32| Int) (|L_32| Int) (|M_32| Int) (|N_32| Int) (|O_32| Int) (|P_32| Int) (|Q_32| Int) (|R_32| Int) (|S_32| Int) (|T_32| Int) (|U_32| Int) (|W_16| Bool) (|.loc.6| Bool) (|.loc.7| Bool) (|.loc.8| Bool) (|.loc.9| Bool) (|.loc.10| Bool) (|W_0| (Array Int Int)) (|.x.699| Int) (|.x.697| (Array Int Int)) (|.x.695| Int) (|.x.693| (Array Int Int)) (|.x.689| Int) (|.x.691| (Array Int Int)) (|.x.690| (Array Int Int)) (|V_32| Bool) (|.x.700| Int) (|.x.701| Int) (|.x.702| Int) (|.x.704| Int) (|.loc.12| Bool) (|.x.705| Int) (|.x.703| Int) (|.x.708| Int) (|.loc.15| Bool) (|.loc.11| Bool) (|.loc.13| Bool) (|.loc.14| Bool) (|.x.709| Int) (|.x.707| Int) (|.x.706| Int) (|.x.692| (Array Int Int)) (|.x.698| Int) (|.x.694| Int) (|.x.696| (Array Int Int)) (|.xtv.1| (Array Int Int))) (=> (and (state |A_32| |B_32| |C_32| |D_32| |E_32| |F_32| |G_32| |H_32| |I_32| |J_32| |K_32| |L_32| |M_32| |N_32| |O_32| |P_32| |Q_32| |R_32| |S_32| |T_32| |U_32| |W_16| |.loc.6| |.loc.7| |.loc.8| |.loc.9| |.loc.10| |W_0|) (let ((.def_38 (not .loc.7))) (let ((.def_40 (not .loc.8))) (let ((.def_42 (not .loc.9))) (let ((.def_44 (not .loc.10))) (let ((.def_76 (= B_32 .x.690))) (let ((.def_80 (= L_32 .x.700))) (let ((.def_83 (= M_32 .x.701))) (let ((.def_86 (= N_32 .x.702))) (let ((.def_89 (= P_32 .x.704))) (let ((.def_91 (not .loc.6))) (let ((.def_102 (= W_16 V_32))) (let ((.def_112 (= O_32 0))) (let ((.def_116 (and .def_86 (and .def_83 (and .def_76 .def_80))))) (let ((.def_117 (and .def_89 .def_116))) (let ((.def_123 (not .loc.12))) (let ((.def_129 (= Q_32 .x.705))) (let ((.def_131 (= O_32 .x.703))) (let ((.def_134 (= T_32 .x.708))) (let ((.def_139 (not .loc.11))) (let ((.def_142 (not .loc.13))) (let ((.def_145 (not .loc.14))) (let ((.def_152 (select D_32 N_32))) (let ((.def_156 (<= 100000 U_32))) (let ((.def_177 (not .loc.15))) (let ((.def_182 (= U_32 .x.709))) (let ((.def_184 (= S_32 .x.707))) (let ((.def_193 (and .def_89 (and .def_116 .def_131)))) (let ((.def_212 (and .def_134 (and .def_184 (and .def_129 .def_193))))) (let ((.def_226 (and W_16 .def_76))) (let ((.def_235 (and .def_182 (and .def_134 (and .def_184 (and .def_129 (and .def_89 (and .def_131 (and .def_86 (and .def_83 (and .def_80 .def_226))))))))))) (let ((.def_249 (and .def_182 .def_212))) (let ((.def_250 (and .loc.7 .def_249))) (let ((.def_251 (and .loc.8 .def_250))) (let ((.def_275 (and .loc.8 .def_249))) (let ((.def_278 (and .def_38 (and .def_91 (and .loc.9 .def_275))))) (let ((.def_286 (<= 100000 R_32))) (let ((.def_287 (or W_16 .def_286))) (let ((.def_291 (= R_32 .x.706))) (let ((.def_293 (= D_32 .x.692))) (let ((.def_297 (+ M_32 (* 4 R_32)))) (let ((.def_306 (and (not .def_286) (= (+ R_32 (* (- 1) .x.706)) (- 1))))) (let ((.def_326 (and .def_129 (and .def_89 (and .def_131 (and .def_86 (and .def_83 (and .def_80 (and .def_76 .def_293))))))))) (let ((.def_330 (and .def_182 (and .def_134 (and .def_184 (and .def_291 .def_326)))))) (let ((.def_354 (and .def_182 (and .def_134 (and .def_184 (and .def_291 (and .def_129 (and .def_89 (and .def_131 (and .def_86 (and .def_83 (and .def_80 (and .def_226 .def_293))))))))))))) (let ((.def_370 (and .loc.6 (and .def_182 (and .def_134 (and .def_184 .def_326)))))) (let ((.def_371 (and .loc.7 .def_370))) (let ((.def_381 (= .x.706 0))) (let ((.def_382 (or W_16 .def_381))) (let ((.def_385 (and .loc.7 .def_354))) (let ((.def_397 (and .loc.7 .def_330))) (and (and (= K_32 .x.699) (and (= I_32 .x.697) (and (= G_32 .x.695) (and (= E_32 .x.693) (and (= A_32 .x.689) (= C_32 .x.691)))))) (or (and (or (or (or (or (or (or (or (or (or (or (or (or (or (or (or (or (or (or (or (or (or (or (or (and (or (or (or (or (or (or (and (or (and (or (and (or (and (and (and (and (and (and .def_76 V_32) .def_80) .def_83) .def_86) .def_89) .def_91) (and (or W_16 (and (= .x.704 0) (= .x.690 (store B_32 N_32 0)))) (and (and .loc.6 (or V_32 (= .x.700 .x.704))) .def_102))) (and (and .def_42 (and .def_40 (and .loc.10 .def_38))) .loc.12)) (and (or W_16 .def_112) (and .def_44 (and (and .def_102 (and .loc.9 (and .loc.8 (and .loc.7 (and .loc.6 .def_117))))) .def_123)))) (and (and (and (and (and (and .def_129 .def_131) .def_134) .loc.15) .def_139) .def_142) .def_145)) (and (or W_16 (and (= .x.703 .x.708) (and (= .x.705 (select .def_152 (+ M_32 (* 4 U_32)))) (and (not .def_156) (= .x.708 (ite (= .x.705 46) 1 0)))))) (and (and .def_44 (and .def_102 (and .loc.14 (and .loc.13 (and .loc.12 (and .loc.11 (and .def_91 (and .loc.9 (and .loc.8 (and .loc.7 .def_117)))))))))) .def_177))) (and .def_182 .def_184)) (and (or V_32 (= (+ U_32 (* (- 1) .x.709)) (- 1))) (and .def_177 (and .def_44 (and .def_102 (and .def_139 (and .loc.14 (and .loc.13 (and .loc.12 (and .def_42 (and .def_40 (and .def_38 (and .def_91 (and .def_134 .def_193)))))))))))))) (and (or W_16 (= .x.709 0)) (and .def_177 (and .def_44 (and .def_102 (and .def_139 (and .loc.14 (and .loc.13 (and .loc.12 (and .def_38 (and .loc.9 (and .loc.8 (and .loc.6 .def_212))))))))))))) (and .def_44 (and .def_123 (and .def_102 (and .def_145 (and .def_142 (and .loc.15 (and .loc.11 (and .def_91 (and .loc.9 (and .loc.8 (and .loc.7 .def_235)))))))))))) (and (or W_16 .def_156) (and .def_44 (and .def_123 (and .def_102 (and .def_145 (and .def_142 (and .loc.15 (and .loc.11 (and .def_91 (and .loc.9 .def_251))))))))))) (and .def_177 (and .def_44 (and .def_123 (and .def_102 (and .loc.14 (and .loc.13 (and .loc.11 (and .def_38 (and .def_91 (and .loc.9 (and .loc.8 .def_235)))))))))))) (and (and .def_177 (and .def_44 (and .def_123 (and .def_102 (and .loc.14 (and .loc.13 (and .loc.11 .def_278))))))) .def_287)) (and .def_291 .def_293)) (and (or W_16 (and (= .x.692 (store D_32 N_32 (store .def_152 .def_297 47))) .def_306)) (and .def_177 (and .def_44 (and .def_123 (and .def_102 (and .def_139 (and .loc.14 (and .loc.13 .def_278))))))))) (and (or W_16 (not .def_112)) (and .def_177 (and .def_44 (and .def_123 (and .def_102 (and .def_145 (and .def_142 (and .def_139 (and .loc.9 (and .loc.8 (and .loc.7 (and .loc.6 .def_330))))))))))))) (and .def_177 (and .def_123 (and .def_102 (and .def_145 (and .def_142 (and .def_139 (and .def_42 (and .def_40 (and .def_38 (and .def_91 (and .loc.10 .def_354)))))))))))) (and (and .def_177 (and .def_44 (and .def_123 (and .def_102 (and .def_139 (and .loc.14 (and .loc.13 (and .def_40 (and .loc.9 .def_371))))))))) .def_382)) (and .def_177 (and .def_44 (and .def_102 (and .def_142 (and .loc.14 (and .loc.12 (and .loc.11 (and .def_40 (and .def_91 (and .loc.9 .def_385))))))))))) (and .def_287 (and .def_177 (and .def_44 (and .def_102 (and .def_142 (and .loc.14 (and .loc.12 (and .loc.11 (and .def_40 (and .def_91 (and .loc.9 .def_397)))))))))))) (and (or W_16 (and .def_306 (= .x.692 (store D_32 N_32 (store .def_152 .def_297 46))))) (and .def_177 (and .def_44 (and .def_102 (and .def_142 (and .def_139 (and .loc.14 (and .loc.12 (and .def_40 (and .def_91 (and .loc.9 .def_250)))))))))))) (and .def_382 (and .def_177 (and .def_44 (and .def_102 (and .def_142 (and .def_139 (and .loc.14 (and .loc.12 (and .def_40 (and .def_38 (and .loc.9 .def_370)))))))))))) (and .def_177 (and .def_44 (and .def_123 (and .def_102 (and .def_142 (and .loc.14 (and .loc.11 (and .def_40 (and .def_38 (and .def_91 (and .loc.9 .def_354)))))))))))) (and .def_287 (and .def_177 (and .def_44 (and .def_123 (and .def_102 (and .def_142 (and .loc.14 (and .loc.11 (and .def_40 (and .def_38 (and .def_91 (and .loc.9 .def_330))))))))))))) (and (or W_16 (and .def_306 (= .x.692 (store D_32 N_32 (store .def_152 .def_297 45))))) (and .def_177 (and .def_44 (and .def_123 (and .def_102 (and .def_142 (and .def_139 (and .loc.14 (and .def_40 (and .def_38 (and .def_91 (and .loc.9 .def_249))))))))))))) (and .def_382 (and .def_177 (and .def_44 (and .def_123 (and .def_102 (and .def_142 (and .def_139 (and .loc.14 (and .def_42 (and .loc.8 .def_371))))))))))) (and .def_177 (and .def_44 (and .def_102 (and .def_145 (and .loc.13 (and .loc.12 (and .loc.11 (and .def_42 (and .def_91 (and .loc.8 .def_385))))))))))) (and .def_287 (and .def_177 (and .def_44 (and .def_102 (and .def_145 (and .loc.13 (and .loc.12 (and .loc.11 (and .def_42 (and .def_91 (and .loc.8 .def_397)))))))))))) (and (or W_16 (and .def_306 (= .x.692 (store D_32 N_32 (store .def_152 .def_297 44))))) (and .def_177 (and .def_44 (and .def_102 (and .def_145 (and .def_139 (and .loc.13 (and .loc.12 (and .def_42 (and .def_91 .def_251))))))))))) (and .def_382 (and .def_177 (and .def_44 (and .def_102 (and .def_145 (and .def_139 (and .loc.13 (and .loc.12 (and .def_42 (and .def_38 (and .loc.8 .def_370)))))))))))) (and .def_177 (and .def_44 (and .def_123 (and .def_102 (and .def_145 (and .loc.13 (and .loc.11 (and .def_42 (and .def_38 (and .def_91 (and .loc.8 .def_354)))))))))))) (and .def_287 (and .def_177 (and .def_44 (and .def_123 (and .def_102 (and .def_145 (and .loc.13 (and .loc.11 (and .def_42 (and .def_38 (and .def_91 (and .loc.8 .def_330))))))))))))) (and (or W_16 (and .def_306 (= .x.692 (store D_32 N_32 (store .def_152 .def_297 43))))) (and .def_177 (and .def_44 (and .def_123 (and .def_102 (and .def_145 (and .def_139 (and .loc.13 (and .def_42 (and .def_38 (and .def_91 .def_275)))))))))))) (and .def_382 (and .def_177 (and .def_44 (and .def_123 (and .def_102 (and .def_145 (and .def_139 (and .loc.13 (and .def_42 (and .def_40 .def_371))))))))))) (and .def_177 (and .def_44 (and .def_102 (and .def_145 (and .def_142 (and .loc.12 (and .loc.11 (and .def_42 (and .def_40 (and .def_91 .def_385))))))))))) (and .def_287 (and .def_177 (and .def_44 (and .def_102 (and .def_145 (and .def_142 (and .loc.12 (and .loc.11 (and .def_42 (and .def_40 (and .def_91 .def_397)))))))))))) (and (or W_16 (and .def_306 (= .x.692 (store D_32 N_32 (store .def_152 .def_297 42))))) (and .def_177 (and .def_44 (and .def_102 (and .def_145 (and .def_142 (and .def_139 (and .loc.12 (and .def_42 (and .def_40 (and .def_91 .def_250)))))))))))) (and (= J_32 .x.698) (and (= F_32 .x.694) (= H_32 .x.696)))) (and (or W_16 (and (and (= .x.698 0) (= .x.694 0)) (= W_0 (store B_32 0 0)))) (and (or V_32 (and (and (and (and (and (and .def_381 (not (<= .x.689 .x.702))) (not (= .x.702 0))) (= .x.701 0)) (= (select W_0 .x.702) 0)) (= .x.696 (store H_32 .x.702 400000))) (= .x.690 (store W_0 .x.702 1)))) (and .def_177 (and .def_44 (and .def_102 (and .def_145 (and .def_142 (and .def_139 (and .loc.12 (and .def_42 (and .def_40 (and .def_38 (and .loc.6 (and .def_134 (and .def_131 (and .def_80 .def_293))))))))))))))))))))))))))))))))))))))))))))))))))))))))))))))))))))) (state |.x.689| |.x.690| |.x.691| |.x.692| |.x.693| |.x.694| |.x.695| |.x.696| |.x.697| |.x.698| |.x.699| |.x.700| |.x.701| |.x.702| |.x.703| |.x.704| |.x.705| |.x.706| |.x.707| |.x.708| |.x.709| |V_32| |.loc.11| |.loc.12| |.loc.13| |.loc.14| |.loc.15| |.xtv.1|))))
(assert (forall ((|A_32| Int) (|B_32| (Array Int Int)) (|C_32| (Array Int Int)) (|D_32| (Array Int Int)) (|E_32| (Array Int Int)) (|F_32| Int) (|G_32| Int) (|H_32| (Array Int Int)) (|I_32| (Array Int Int)) (|J_32| Int) (|K_32| Int) (|L_32| Int) (|M_32| Int) (|N_32| Int) (|O_32| Int) (|P_32| Int) (|Q_32| Int) (|R_32| Int) (|S_32| Int) (|T_32| Int) (|U_32| Int) (|W_16| Bool) (|.loc.6| Bool) (|.loc.7| Bool) (|.loc.8| Bool) (|.loc.9| Bool) (|.loc.10| Bool) (|W_0| (Array Int Int)) (|.x.699| Int) (|.x.697| (Array Int Int)) (|.x.695| Int) (|.x.693| (Array Int Int)) (|.x.689| Int) (|.x.691| (Array Int Int)) (|.x.690| (Array Int Int)) (|V_32| Bool) (|.x.700| Int) (|.x.701| Int) (|.x.702| Int) (|.x.704| Int) (|.loc.12| Bool) (|.x.705| Int) (|.x.703| Int) (|.x.708| Int) (|.loc.15| Bool) (|.loc.11| Bool) (|.loc.13| Bool) (|.loc.14| Bool) (|.x.709| Int) (|.x.707| Int) (|.x.706| Int) (|.x.692| (Array Int Int)) (|.x.698| Int) (|.x.694| Int) (|.x.696| (Array Int Int)) (|.xtv.1| (Array Int Int))) (=> (state |A_32| |B_32| |C_32| |D_32| |E_32| |F_32| |G_32| |H_32| |I_32| |J_32| |K_32| |L_32| |M_32| |N_32| |O_32| |P_32| |Q_32| |R_32| |S_32| |T_32| |U_32| |W_16| |.loc.6| |.loc.7| |.loc.8| |.loc.9| |.loc.10| |W_0|) (not (and W_16 (and .loc.10 (and (not .loc.9) (and (not .loc.8) (and .loc.7 (not .loc.6))))))))))
(check-sat)
